NAME : RC105.4113.tour
COMMENT : Cost = 0_4113
COMMENT : Found by LKH [Keld Helsgaun] Wed Sep 13 18:32:22 2017
TYPE : TOUR
DIMENSION : 29
TOUR_SECTION
1
13
15
17
16
14
18
29
12
10
11
28
20
24
19
23
21
22
26
25
27
3
6
4
2
9
7
8
5
-1
EOF
